39678 39752 
39931 39597 
40166 39300 
39709 39660 
42123 37248 
41857 37637 
42052 37362 
41786 37751 
41817 37659 
41487 37950 
41694 37831 
41940 37484 
41428 38220 
41623 37945 
41357 38334 
41388 38242 
40237 39233 
39835 39655 
40002 39483 
42206 37095 
41971 37392 
41264 38412 
41459 38128 
41914 37598 
42137 37136 
42135 37209 
40843 38854 
40914 38749 
41078 38557 
40723 39000 
40516 39138 
40652 39058 
41153 38419 
40887 38808 
41036 38641 
42298 36554 
42373 35771 
42220 36983 
42377 35665 
42322 35837 
41142 38535 
40925 38655 
40918 38716 
41464 38024 
40428 39231 
40144 39345 
40635 39093 
39591 39805 
39542 39832 
40109 39447 
39247 39891 
39877 39651 
40210 39298 
39291 39845 
39952 39513 
